NAME : portgen-29-15
COMMENT : portgen N=29, seed=15
TYPE : TSP
DIMENSION : 29
EDGE_WEIGHT_TYPE : EUC_2D
NODE_COORD_SECTION
1 284097 798328
2 826047 8361
3 402225 356674
4 916334 650522
5 889673 948416
6 706043 621016
7 100009 234950
8 538835 164509
9 404021 603359
10 578795 488706
11 845528 125426
12 678589 241372
13 967309 813034
14 15021 562143
15 724089 779318
16 171992 439475
17 558567 854638
18 730202 439680
19 742454 245762
20 88040 393219
21 641977 717296
22 258308 325208
23 554742 954960
24 113761 516687
25 788795 812383
26 772743 929571
27 205166 458809
28 255952 844621
29 239760 971409
